50
    17    77    50    46    82    78    64    80    91    20     2    62    38    36    40    71     7    72    96    49    74    93    26     5     4    77    30    14    53    18    48    15    69    28    57    14    89    32    80    82    41    72    78    55    45     4    50    38     9     2
     2     5     4     4     7     1     1     7     4     4     7     3     1     7     1     9    10     7     9     1     3     7     4     5     7     4     6     7     7     8     3    10     5     6     8    10     1     9     5     2     2     3     1    10    10     8     4     7     8     8
  1298  1294  2079  1694  1182  1131  1464  1151  1184  1536  1632  1211   840   818  1595  1913  1419  1227  1320  2047   967  1243  1405  1067  1492  1417  2067  1722  1161   937  1396  1992  1473  2044  1458  1990   889   887   866  1605  2009  1930   866  1705   911  1675   765  1773  1472  1637
